#######################



#######################
Set parameter TimeLimit to value 300
Set parameter SoftMemLimit to value 125
Set parameter MIPFocus to value 2
Set parameter LogFile to value 1202-MIPFocus2-Presolve1-TimeLimit300-k16x240-6.log
Set parameter Presolve to value 1
Set parameter Seed to value 6
Using license file /opt/gurobi/gurobi.lic

Gurobi Optimizer version 12.0.2 build v12.0.2rc0 (linux64 - "Ubuntu 22.04.4 LTS")
Copyright (c) 2025, Gurobi Optimization, LLC

Read MPS format model from file /miplib2010/k16x240.mps.bz2
Reading time = 0.00 seconds
k16x240: 256 rows, 480 columns, 960 nonzeros

Using Gurobi shared library /nfs/shared/static-builds/gurobi1202

CPU model: Intel(R) Xeon(R) E-2388G CPU @ 3.20GHz, instruction set [SSE2|AVX|AVX2|AVX512]
Thread count: 8 physical cores, 16 logical processors, using up to 16 threads

Non-default parameters:
TimeLimit  300
SoftMemLimit  125
MIPFocus  2
Presolve  1
Seed  6

Optimize a model with 256 rows, 480 columns and 960 nonzeros
Model fingerprint: 0x4e80885f
Variable types: 240 continuous, 240 integer (240 binary)
Coefficient statistics:
  Matrix range     [1e+00, 1e+03]
  Objective range  [1e+00, 1e+03]
  Bounds range     [1e+00, 1e+03]
  RHS range        [4e+00, 4e+02]
Found heuristic solution: objective 19315.000000
Presolve time: 0.00s
Presolved: 256 rows, 480 columns, 960 nonzeros
Variable types: 240 continuous, 240 integer (240 binary)

Root relaxation: objective 2.769838e+03, 51 iterations, 0.00 seconds (0.00 work units)

    Nodes    |    Current Node    |     Objective Bounds      |     Work
 Expl Unexpl |  Obj  Depth IntInf | Incumbent    BestBd   Gap | It/Node Time

     0     0 2769.83800    0   14 19315.0000 2769.83800  85.7%     -    0s
H    0     0                    11359.000000 2769.83800  75.6%     -    0s
H    0     0                    11195.000000 2769.83800  75.3%     -    0s
H    0     0                    11088.000000 2769.83800  75.0%     -    0s
H    0     0                    11074.000000 2769.83800  75.0%     -    0s
     0     0 8116.87580    0   26 11074.0000 8116.87580  26.7%     -    0s
H    0     0                    10916.000000 8161.01413  25.2%     -    0s
     0     0 8588.30479    0   25 10916.0000 8588.30479  21.3%     -    0s
H    0     0                    10896.000000 8613.92228  20.9%     -    0s
     0     0 8613.92228    0   22 10896.0000 8613.92228  20.9%     -    0s
H    0     0                    10872.000000 8720.59081  19.8%     -    0s
H    0     0                    10806.000000 8720.59081  19.3%     -    0s
     0     0 8720.59081    0   23 10806.0000 8720.59081  19.3%     -    0s
H    0     0                    10748.000000 8724.13618  18.8%     -    0s
     0     0 8841.67029    0   27 10748.0000 8841.67029  17.7%     -    0s
     0     0 8854.70970    0   41 10748.0000 8854.70970  17.6%     -    0s
     0     0 8856.63912    0   42 10748.0000 8856.63912  17.6%     -    0s
     0     0 9002.70444    0   49 10748.0000 9002.70444  16.2%     -    0s
     0     0 9008.96918    0   36 10748.0000 9008.96918  16.2%     -    0s
     0     0 9068.93309    0   37 10748.0000 9068.93309  15.6%     -    0s
     0     0 9085.65372    0   36 10748.0000 9085.65372  15.5%     -    0s
     0     0 9086.45430    0   34 10748.0000 9086.45430  15.5%     -    0s
     0     0 9124.82850    0   27 10748.0000 9124.82850  15.1%     -    0s
     0     0 9126.48728    0   30 10748.0000 9126.48728  15.1%     -    0s
     0     0 9130.87235    0   26 10748.0000 9130.87235  15.0%     -    0s
     0     0 9131.61296    0   26 10748.0000 9131.61296  15.0%     -    0s
H    0     0                    10681.000000 9133.39446  14.5%     -    0s
     0     2 9133.39446    0   26 10681.0000 9133.39446  14.5%     -    0s
H   44    61                    10678.000000 9184.16807  14.0%  53.7    0s
H  986   817                    10674.000000 9320.31693  12.7%  18.8    0s
 36900 14249 10587.6953   29    8 10674.0000 9994.66076  6.36%  23.2    5s
 82004 19397 10301.0981   33    8 10674.0000 10208.4825  4.36%  24.5   10s
 127439 14745     cutoff   29      10674.0000 10377.0855  2.78%  24.1   15s

Cutting planes:
  Gomory: 1
  Lift-and-project: 12
  Cover: 99
  Implied bound: 32
  Dual implied bound: 13
  MIR: 187
  Mixing: 2
  Flow cover: 271
  Flow path: 32
  Zero half: 9
  Network: 45
  Relax-and-lift: 3

Explored 159267 nodes (3631468 simplex iterations) in 17.78 seconds (23.94 work units)
Thread count was 16 (of 16 available processors)

Solution count 10: 10674 10678 10681 ... 11088

Optimal solution found (tolerance 1.00e-04)
Best objective 1.067400000000e+04, best bound 1.067400000000e+04, gap 0.0000%
